c A SAT instance generated from a 3-CNF formula that had 36 clauses and 12 variables
p cnf 12 36
5 11 4 0
7 6 -2 0
12 10 9 0
-2 5 6 0
9 -11 12 0
-1 -10 9 0
3 8 -1 0
6 4 -12 0
6 -10 4 0
8 -5 11 0
-6 1 -9 0
-3 7 11 0
9 5 -12 0
11 5 -1 0
11 4 -2 0
12 7 8 0
2 1 -7 0
-6 1 -11 0
3 -8 -11 0
6 -12 -8 0
10 -11 -7 0
8 -9 -1 0
-5 1 -9 0
7 -8 12 0
-4 -3 11 0
6 -2 7 0
7 5 8 0
-3 -5 2 0
-3 -4 2 0
11 4 -5 0
4 5 8 0
-6 8 5 0
12 -10 5 0
-7 12 6 0
1 -7 -3 0
-7 9 -12 0
